c This Formular is generated by mcnf
c
c    horn? no 
c    forced? no 
c    mixed sat? no 
c    clause length = 3 
c
p cnf 20  91 
 -18 -2 -8 0
4 -10 -20 0
7 -14 -11 0
19 -13 -18 0
5 -8 -19 0
11 -5 -1 0
-5 16 -9 0
14 -5 12 0
4 16 3 0
6 14 -8 0
12 -5 17 0
-1 -4 -3 0
4 -19 -8 0
-10 -12 19 0
3 -9 16 0
-16 -17 4 0
1 -15 -5 0
19 17 -16 0
2 12 -4 0
8 -12 -7 0
-11 16 -14 0
%
0

12 40 28 15 35 28 94 89 22 21 88 27 43 15 6 67 20 5 91 96
